units metal
dimension 3
boundary p p p
atom_style atomic

region myreg block 0 10 0 10 0 10
create_box 1 myreg
lattice bcc 3.165 orient x 1 0 0 orient y 0 1 0 orient z 0 0 1
create_atoms 1 region myreg

pair_style lj/cut 11.5460000
pair_coeff * * 6.8638900 2.8865100
mass 1 183.84

timestep 0.001
fix mynpt all npt temp 300.0 300.0 0.1 iso 1.0 1.0 1.0

dump mydump all atom 1000 atom.lammpstrj
thermo_style custom step temp etotal
thermo 1000

write_data initial.data

run 25000
